
Gurobi 9.5.0 (mac64[x86]) logging started Mon 16 Jan 14:51:36 2023

Set parameter LogFile to value "/Users/nikitabelyak/Dropbox (Aalto)/TSEP/Nordic_case_study/2022 data/optimisation_results/16_Jan_2023_14_51_36.log"
Set parameter Threads to value 6
